p cnf 1057 1298
c ind 730 731 732 745 752 778 839 840 853 860 0
c ind 864 866 869 885 887 890 902 903 922 924 0
c ind 928 939 940 944 945 946 950 952 723 838 0
c ind 753 765 724 725 837 728 729 836 1042 1024 0
c ind 1033 1047 1010 1028 1038 1055 1011 1009 1041 1023 0
c ind 1032 1046 1027 1037 1054 1008 1040 1022 1031 1045 0
c ind 1026 1036 1053 1039 1021 1030 1044 1025 1035 1052 0
c ind 1006 1016 1020 1050 1007 1005 1000 1004 1003 1002 0
c ind 1001 1018 1048 1019 1049 998 999 1029 1043 1034 0
c ind 1051 997 992 996 995 994 726 727 993 1017 0
c ind 990 991 983 984 989 1013 988 987 986 985 0
c ind 981 982 980 1014 979 977 978 976 971 975 0
c ind 974 973 972 969 970 1015 968 963 967 966 0
c ind 965 964 1012 961 962 954 955 960 959 958 0
c ind 957 956 934 935 933 932 931 953 943 941 0
c ind 942 930 929 951 938 927 949 947 948 936 0
c ind 937 926 925 918 923 921 919 920 917 910 0
c ind 909 916 915 914 913 912 911 908 907 906 0
c ind 905 904 722 897 896 894 895 893 892 898 0
c ind 899 891 889 900 888 901 886 884 882 883 0
c ind 881 880 879 878 877 876 875 873 874 872 0
c ind 871 870 868 867 865 843 863 861 862 859 0
c ind 854 858 855 856 850 857 852 848 849 851 0
c ind 735 847 842 846 844 845 841 835 828 820 0
c ind 834 833 832 831 814 813 812 830 811 829 0
c ind 810 809 808 827 826 825 824 823 822 821 0
c ind 819 818 817 816 815 807 800 792 806 805 0
c ind 804 803 786 785 784 802 783 801 782 781 0
c ind 780 799 798 797 796 795 794 793 791 790 0
c ind 789 788 787 779 777 775 776 766 767 774 0
c ind 773 772 771 770 768 769 762 761 763 764 0
c ind 760 759 758 757 755 756 754 751 750 746 0
c ind 747 748 749 742 744 741 740 743 734 739 0
c ind 733 738 736 737 1 0
c ret 606 607 608 609 610 611 612 613 614 615 0
c ret 616 617 618 619 620 621 622 623 624 625 0
c ret 626 627 628 629 630 631 632 633 634 635 0
c ret 636 637 638 639 640 641 642 643 644 645 0
c ret 646 647 648 649 650 651 652 653 654 655 0
c ret 656 657 658 659 660 661 662 663 664 665 0
c ret 666 667 668 669 670 671 672 673 674 675 0
c ret 676 677 678 679 680 681 682 683 684 685 0
c ret 686 301 687 307 308 688 309 689 310 690 0
c ret 311 312 313 314 315 316 317 318 319 320 0
c ret 321 322 323 324 325 691 692 326 327 693 0
c ret 694 328 329 330 331 332 695 333 334 335 0
c ret 336 337 338 696 339 340 697 341 342 343 0
c ret 698 302 699 344 345 346 347 348 349 350 0
c ret 700 351 352 353 701 702 354 355 356 357 0
c ret 703 704 358 359 360 361 362 363 364 365 0
c ret 366 367 368 369 370 371 705 372 706 373 0
c ret 374 375 707 376 708 377 378 379 380 381 0
c ret 382 383 709 384 303 385 386 387 710 388 0
c ret 711 389 390 391 712 713 392 393 394 395 0
c ret 396 397 398 399 400 714 715 401 402 403 0
c ret 404 405 716 406 407 408 409 410 411 412 0
c ret 413 414 717 415 416 417 718 418 719 419 0
c ret 420 720 421 422 721 423 424 304 425 426 0
c ret 427 428 429 430 431 432 433 434 435 436 0
c ret 437 438 439 440 441 442 443 444 445 446 0
c ret 447 448 449 450 451 452 453 454 455 456 0
c ret 457 458 459 460 461 462 463 464 465 466 0
c ret 467 468 469 470 471 472 473 474 475 476 0
c ret 477 478 479 480 481 482 483 484 485 486 0
c ret 487 488 489 490 491 492 493 494 495 305 0
c ret 496 497 498 499 500 501 502 503 504 505 0
c ret 506 507 508 509 510 511 512 513 514 515 0
c ret 516 517 518 519 520 521 522 523 524 525 0
c ret 526 527 528 529 530 531 532 533 534 306 0
c ret 535 536 537 538 539 540 541 542 543 544 0
c ret 545 546 547 548 549 550 551 552 553 554 0
c ret 555 556 557 558 559 560 561 562 563 564 0
c ret 565 566 567 568 569 570 571 572 573 574 0
c ret 575 576 577 578 579 580 581 582 583 584 0
c ret 585 586 587 588 589 590 591 592 593 594 0
c ret 595 596 597 598 599 600 601 602 603 604 0
c ret 605 0
2 4 5 -297 0
2 3 5 -297 0
-2 297 0
-2 -5 0
-2 -3 -4 0
3 533 0
3 -534 540 0
3 534 541 0
-3 -533 534 -541 0
-3 -533 -534 -540 0
4 533 0
4 -534 -540 0
4 534 -541 0
-4 -533 534 541 0
-4 -533 -534 540 0
5 6 62 108 -129 0
5 -6 -62 108 -129 0
-5 -108 0
-5 6 -62 0
-5 129 0
-5 -6 62 0
6 -7 -21 0
6 -7 58 0
-6 7 0
-6 21 -58 0
7 8 14 0
7 8 15 16 0
-7 -8 0
-7 -14 -15 0
-7 -14 -16 0
8 -10 -11 0
8 -9 -11 0
-8 11 0
-8 9 10 0
9 954 0
9 -955 -961 0
9 955 -962 0
-9 -954 955 962 0
-9 -954 -955 961 0
-9 10 0
10 -963 969 0
10 963 970 0
9 -10 -963 -969 0
9 -10 963 -970 0
11 -12 -13 0
-9 11 -13 0
-11 13 0
9 -11 12 0
-9 12 0
12 963 -970 0
12 -963 -969 0
9 -12 -963 969 0
9 -12 963 970 0
13 954 0
13 -955 961 0
13 955 962 0
-13 -954 955 -962 0
-13 -954 -955 -961 0
14 983 0
14 -984 990 0
14 984 991 0
-14 -983 984 -991 0
-14 -983 -984 -990 0
15 983 0
15 -984 -990 0
15 984 -991 0
-15 -983 984 991 0
-15 -983 -984 990 0
16 17 -18 -20 0
-16 20 0
-16 18 0
-16 -17 0
17 -992 -998 0
17 992 -999 0
-17 992 999 0
-17 -992 998 0
18 19 0
18 -1000 1006 0
18 1000 1007 0
-18 -19 -1000 -1006 0
-18 -19 1000 -1007 0
15 17 19 0
-15 -19 0
-17 -19 0
19 20 0
20 1000 -1007 0
20 -1000 -1006 0
-19 -20 1000 1007 0
-19 -20 -1000 1006 0
21 -22 -57 -1055 0
21 22 -23 -57 0
-21 57 0
-21 -22 1055 0
-21 22 23 0
22 949 -951 0
-22 -949 0
-22 951 0
23 -24 -1054 0
23 24 -25 0
-23 -24 1054 0
-23 24 25 0
24 921 -923 0
-24 -921 0
-24 923 0
25 26 49 56 0
25 26 49 -52 0
-25 -26 0
-25 -49 0
-25 52 -56 0
26 -47 722 -897 0
26 27 722 897 0
-26 -722 0
-26 47 -897 0
-26 -27 897 0
27 -28 -1051 0
-27 1051 0
-27 28 0
28 -29 43 0
-28 29 0
-28 -43 0
29 -36 37 0
29 30 37 -787 0
-29 -37 0
-29 -30 36 0
-29 36 787 0
30 31 0
30 34 -786 0
30 34 792 0
-30 -31 -34 0
-30 -31 786 -792 0
31 -32 33 -780 -787 0
-31 32 0
-31 -33 0
-31 780 0
-31 787 0
32 781 782 783 0
-32 -781 0
-32 -783 0
-32 -782 0
33 784 -785 0
-33 -784 0
-33 785 0
34 35 786 792 -793 0
-34 -786 0
-34 -35 0
-34 793 0
-34 -792 0
35 800 801 0
-35 -800 0
-35 -801 0
32 36 -780 0
33 36 -780 -786 0
-36 780 0
-32 -36 786 0
-32 -33 -36 0
37 39 42 0
37 39 -41 0
37 38 39 0
-37 -39 0
-37 -38 41 -42 0
38 809 810 811 0
-38 -809 0
-38 -811 0
-38 -810 0
38 39 -808 0
39 40 -808 -814 0
-39 808 0
-38 -39 814 0
-38 -39 -40 0
40 812 -813 0
-40 -812 0
-40 813 0
41 820 821 0
41 820 828 829 0
-41 -820 0
-41 -821 -828 0
-41 -821 -829 0
40 42 -808 814 -815 0
-42 815 0
-40 -42 0
-42 808 0
-42 -814 0
43 -44 -754 0
43 -46 -754 0
43 -45 -754 0
-43 754 0
-43 44 45 46 0
44 -755 756 757 0
-44 755 0
-44 -757 0
-44 -756 0
45 760 763 764 0
-45 -760 0
-45 -764 0
-45 -763 0
46 -760 761 762 0
-46 760 0
-46 -762 0
-46 -761 0
47 -48 1052 0
27 47 48 0
-47 -48 -1052 0
-27 -47 48 0
48 863 -865 0
-48 -863 0
-48 865 0
49 -50 -51 -907 0
49 -50 -51 -908 0
-49 51 0
-49 50 0
-49 907 908 0
50 910 911 912 913 0
-50 -913 0
-50 -912 0
-50 -910 0
-50 -911 0
51 -904 -905 -906 909 0
-51 906 0
-51 -909 0
-51 904 0
-51 905 0
47 52 -53 0
-47 -52 0
-52 53 0
53 54 55 0
-53 -54 0
-53 -55 0
54 884 -886 0
-54 -884 0
-54 886 0
55 876 877 878 0
-55 -876 0
-55 -878 0
-55 -877 0
54 56 -722 0
56 -722 1053 0
-56 722 0
-54 -56 -1053 0
57 -918 925 0
-57 918 0
-57 -925 0
58 59 -918 0
23 25 58 0
25 58 59 0
23 58 -918 0
-25 -58 918 0
-23 -58 -59 0
59 61 -918 -925 0
59 60 -918 -925 0
-59 918 0
-59 925 0
-59 -60 -61 0
60 -926 927 0
-60 926 0
-60 -927 0
61 929 -930 -931 932 0
-61 -929 0
-61 -932 0
-61 931 0
-61 930 0
62 -63 -65 0
62 -63 104 0
-62 63 0
-62 65 -104 0
4 63 -64 0
3 63 -64 0
-63 64 0
-3 -4 -63 0
64 -562 -591 -620 -649 0
-64 649 0
-64 562 0
-64 620 0
-64 591 0
65 -66 -103 -721 0
65 66 -67 -103 0
-65 103 0
-65 -66 721 0
-65 66 67 0
66 528 -530 0
-66 -528 0
-66 530 0
67 -68 -720 0
67 68 -69 0
-67 -68 720 0
-67 68 69 0
68 500 -502 0
-68 -500 0
-68 502 0
69 70 95 102 0
69 70 95 -98 0
-69 -70 0
-69 -95 0
-69 98 -102 0
70 -93 301 -476 0
70 71 301 476 0
-70 -301 0
-70 93 -476 0
-70 -71 476 0
71 -72 -717 0
-71 717 0
-71 72 0
72 73 -77 0
-72 -73 0
-72 77 0
73 -74 -333 0
73 -76 -333 0
73 -75 -333 0
-73 333 0
-73 74 75 76 0
74 -334 335 336 0
-74 334 0
-74 -336 0
-74 -335 0
75 339 342 343 0
-75 -339 0
-75 -343 0
-75 -342 0
76 -339 340 341 0
-76 339 0
-76 -341 0
-76 -340 0
77 78 -85 0
77 78 88 -366 0
-77 -78 0
-77 85 -88 0
-77 85 366 0
78 -79 82 0
78 82 387 0
-78 -82 0
-78 79 -387 0
79 -81 390 393 0
79 -80 -81 390 0
-79 -390 0
-79 81 0
-79 80 -393 0
80 391 -392 0
-80 -391 0
-80 392 0
81 388 389 0
-81 -388 0
-81 -389 0
80 -81 82 83 -84 0
81 -82 0
-82 -83 0
-80 -82 0
-82 84 0
83 399 400 0
83 399 407 408 0
-83 -399 0
-83 -400 -407 0
-83 -400 -408 0
84 -387 390 393 -394 0
-84 394 0
-84 -393 0
-84 387 0
-84 -390 0
85 86 -359 0
85 87 -359 -365 0
-85 359 0
-85 -86 365 0
-85 -86 -87 0
86 360 361 362 0
-86 -360 0
-86 -362 0
-86 -361 0
87 363 -364 0
-87 -363 0
-87 364 0
88 89 91 0
-88 -89 0
-88 -91 0
89 -90 365 -371 0
-89 90 0
-89 371 0
-89 -365 0
-86 87 90 -359 -366 0
86 -90 0
-87 -90 0
-90 359 0
-90 366 0
-90 91 -92 -379 0
-90 91 -92 -380 0
-91 92 0
90 -91 0
-91 379 380 0
92 365 371 -372 0
-92 372 0
-92 -371 0
-92 -365 0
93 -94 718 0
71 93 94 0
-93 -94 -718 0
-71 -93 94 0
94 442 -444 0
-94 -442 0
-94 444 0
95 -96 -97 -486 0
95 -96 -97 -487 0
-95 97 0
-95 96 0
-95 486 487 0
96 489 490 491 492 0
-96 -492 0
-96 -491 0
-96 -489 0
-96 -490 0
97 -483 -484 -485 488 0
-97 485 0
-97 -488 0
-97 483 0
-97 484 0
93 98 -99 0
-93 -98 0
-98 99 0
99 100 101 0
-99 -100 0
-99 -101 0
100 455 456 457 0
-100 -455 0
-100 -457 0
-100 -456 0
101 463 -465 0
-101 -463 0
-101 465 0
101 102 -301 0
102 -301 719 0
-102 301 0
-101 -102 -719 0
103 -497 504 0
-103 497 0
-103 -504 0
104 105 -497 0
67 69 104 0
69 104 105 0
67 104 -497 0
-69 -104 497 0
-67 -104 -105 0
105 107 -497 -504 0
105 106 -497 -504 0
-105 497 0
-105 504 0
-105 -106 -107 0
106 -505 506 0
-106 505 0
-106 -506 0
107 508 -509 -510 511 0
-107 -508 0
-107 -511 0
-107 510 0
-107 509 0
108 109 -119 0
-108 -109 0
-108 119 0
-7 109 -110 0
-7 109 118 0
7 -109 0
-109 110 -118 0
22 -57 110 -111 0
-22 -57 110 -1033 0
57 -110 0
22 -110 111 0
-22 -110 1033 0
-24 111 -1032 0
24 111 -112 0
-24 -111 1032 0
24 -111 112 0
49 112 113 117 0
49 112 113 -116 0
-49 -112 0
-112 -113 0
-112 116 -117 0
113 -115 722 -897 0
113 114 722 897 0
-113 -722 0
-113 115 -897 0
-113 -114 897 0
-28 114 -1029 0
-114 1029 0
28 -114 0
-48 115 1030 0
48 114 115 0
-48 -115 -1030 0
48 -114 -115 0
-53 115 116 0
53 -116 0
-115 -116 0
54 117 -722 0
117 -722 1031 0
-117 722 0
-54 -117 -1031 0
111 118 -918 0
59 112 118 0
111 112 118 0
59 118 -918 0
-59 -111 -118 0
-112 -118 918 0
-63 119 -120 0
-63 119 128 0
63 -119 0
-119 120 -128 0
66 -103 120 -121 0
-66 -103 120 -699 0
103 -120 0
66 -120 121 0
-66 -120 699 0
-68 121 -698 0
68 121 -122 0
-68 -121 698 0
68 -121 122 0
95 122 123 127 0
95 122 123 -126 0
-95 -122 0
-122 -123 0
-122 126 -127 0
123 -125 301 -476 0
123 124 301 476 0
-123 -301 0
-123 125 -476 0
-123 -124 476 0
-72 124 -695 0
-124 695 0
72 -124 0
-94 125 696 0
94 124 125 0
-94 -125 -696 0
94 -124 -125 0
-99 125 126 0
99 -126 0
-125 -126 0
101 127 -301 0
127 -301 697 0
-127 301 0
-101 -127 -697 0
121 128 -497 0
105 122 128 0
121 122 128 0
105 128 -497 0
-105 -121 -128 0
-122 -128 497 0
109 129 -130 -169 0
-119 129 -130 -169 0
-129 169 0
-129 130 0
-109 119 -129 0
130 -131 -141 -160 0
130 131 141 151 0
130 131 141 -160 0
130 -131 -141 151 0
-130 131 -141 0
-130 -131 141 0
-130 -151 160 0
-7 131 -132 0
-7 131 140 0
7 -131 0
-131 132 -140 0
22 -57 132 -133 0
-22 -57 132 -1024 0
57 -132 0
22 -132 133 0
-22 -132 1024 0
-24 133 -1023 0
24 133 -134 0
-24 -133 1023 0
24 -133 134 0
49 134 135 139 0
49 134 135 -138 0
-49 -134 0
-134 -135 0
-134 138 -139 0
135 136 -722 1022 0
54 135 136 -722 0
-135 722 0
-135 -136 0
-54 -135 -1022 0
-53 136 137 0
53 -136 0
-136 -137 0
28 48 137 0
-48 137 1021 0
48 137 727 0
-48 -137 -1021 0
-28 48 -137 -727 0
-28 48 138 -727 0
-28 138 -727 897 0
28 -138 0
-138 727 0
-48 -138 -897 0
139 722 1021 0
139 722 897 0
48 139 722 0
-139 -722 0
-48 -139 -897 -1021 0
133 140 -918 0
59 134 140 0
133 134 140 0
59 140 -918 0
-59 -133 -140 0
-134 -140 918 0
-63 141 -142 0
-63 141 150 0
63 -141 0
-141 142 -150 0
66 -103 142 -143 0
-66 -103 142 -690 0
103 -142 0
66 -142 143 0
-66 -142 690 0
-68 143 -689 0
68 143 -144 0
-68 -143 689 0
68 -143 144 0
95 144 145 149 0
95 144 145 -148 0
-95 -144 0
-144 -145 0
-144 148 -149 0
145 146 -301 688 0
101 145 146 -301 0
-145 301 0
-145 -146 0
-101 -145 -688 0
-99 146 147 0
99 -146 0
-146 -147 0
72 94 147 0
-94 147 687 0
94 147 306 0
-94 -147 -687 0
-72 94 -147 -306 0
-72 94 148 -306 0
-72 148 -306 476 0
72 -148 0
-148 306 0
-94 -148 -476 0
149 301 687 0
149 301 476 0
94 149 301 0
-149 -301 0
-94 -149 -476 -687 0
143 150 -497 0
105 144 150 0
143 144 150 0
105 150 -497 0
-105 -143 -150 0
-144 -150 497 0
-7 151 -152 0
-7 151 159 0
7 -151 0
-151 152 -159 0
22 -57 152 -153 0
-22 -57 152 -1028 0
57 -152 0
22 -152 153 0
-22 -152 1028 0
-24 153 -1027 0
24 153 -154 0
-24 -153 1027 0
24 -153 154 0
49 154 155 158 0
49 154 155 -157 0
-49 -154 0
-154 -155 0
-154 157 -158 0
155 -156 722 -897 0
28 155 722 897 0
-155 -722 0
-155 156 -897 0
-28 -155 897 0
-48 156 1025 0
28 48 156 0
-48 -156 -1025 0
-28 48 -156 0
-53 156 157 0
53 -157 0
-156 -157 0
54 158 -722 0
158 -722 1026 0
-158 722 0
-54 -158 -1026 0
153 159 -918 0
59 154 159 0
153 154 159 0
59 159 -918 0
-59 -153 -159 0
-154 -159 918 0
-63 160 -161 0
-63 160 168 0
63 -160 0
-160 161 -168 0
66 -103 161 -162 0
-66 -103 161 -694 0
103 -161 0
66 -161 162 0
-66 -161 694 0
-68 162 -693 0
68 162 -163 0
-68 -162 693 0
68 -162 163 0
95 163 164 167 0
95 163 164 -166 0
-95 -163 0
-163 -164 0
-163 166 -167 0
164 -165 301 -476 0
72 164 301 476 0
-164 -301 0
-164 165 -476 0
-72 -164 476 0
-94 165 691 0
72 94 165 0
-94 -165 -691 0
-72 94 -165 0
-99 165 166 0
99 -166 0
-165 -166 0
101 167 -301 0
167 -301 692 0
-167 301 0
-101 -167 -692 0
162 168 -497 0
105 163 168 0
162 163 168 0
105 168 -497 0
-105 -162 -168 0
-163 -168 497 0
-151 169 -170 -255 0
160 169 -170 -255 0
-169 255 0
-169 170 0
151 -160 -169 0
170 171 185 -198 -237 0
170 -171 -185 -198 -237 0
-170 237 0
-170 -171 185 0
-170 198 0
-170 171 -185 0
-7 171 -172 0
-7 171 -183 0
-7 171 -182 0
7 -171 0
-171 172 182 183 0
172 175 -176 0
-53 172 173 -176 0
-172 176 0
-172 -173 -175 0
53 -172 -175 0
-48 173 1035 0
48 173 174 0
-48 -173 -1035 0
48 -173 -174 0
-28 174 -1034 0
-174 1034 0
28 -174 0
54 175 -722 0
175 -722 1036 0
-175 722 0
-54 -175 -1036 0
176 177 -178 0
-176 -177 0
-176 178 0
-173 177 722 -897 0
174 177 722 897 0
-177 -722 0
173 -177 -897 0
-174 -177 897 0
49 178 918 0
24 49 178 179 0
-49 -178 0
-178 -179 -918 0
-24 -178 -918 0
-22 179 180 925 0
-60 179 180 -925 0
-179 -180 0
60 -179 -925 0
22 -179 925 0
61 180 -181 0
-61 -180 0
-180 181 0
181 -918 -925 -926 927 0
-181 926 0
-181 -927 0
-181 918 0
-181 925 0
-22 -57 182 -1038 0
-182 1038 0
22 -182 0
57 -182 0
-24 183 -184 -1037 0
-183 1037 0
24 -183 0
-183 184 0
179 184 -918 0
-184 918 0
-179 -184 0
-63 185 -186 0
-63 185 -196 0
-63 185 -195 0
63 -185 0
-185 186 195 196 0
186 189 -190 0
-99 186 187 -190 0
-186 190 0
-186 -187 -189 0
99 -186 -189 0
-94 187 701 0
94 187 188 0
-94 -187 -701 0
94 -187 -188 0
-72 188 -700 0
-188 700 0
72 -188 0
101 189 -301 0
189 -301 702 0
-189 301 0
-101 -189 -702 0
190 191 -192 0
-190 -191 0
-190 192 0
-187 191 301 -476 0
188 191 301 476 0
-191 -301 0
187 -191 -476 0
-188 -191 476 0
95 192 497 0
68 95 192 193 0
-95 -192 0
-192 -193 -497 0
-68 -192 -497 0
-66 193 194 504 0
-106 193 194 -504 0
-193 -194 0
106 -193 -504 0
66 -193 504 0
-106 107 194 -497 -504 0
106 -194 0
-107 -194 0
-194 497 0
-194 504 0
-66 -103 195 -704 0
-195 704 0
66 -195 0
103 -195 0
-68 196 -197 -703 0
-196 703 0
68 -196 0
-196 197 0
193 197 -497 0
-197 497 0
-193 -197 0
198 -199 -213 -224 0
198 199 213 -224 0
-198 224 0
-198 -199 213 0
-198 199 -213 0
199 -203 301 0
100 199 -200 -203 0
-199 203 0
-199 200 -301 0
-100 -199 -301 0
200 420 -716 0
200 -201 -420 0
-200 201 -420 0
-200 420 716 0
-77 201 -678 0
73 -77 201 202 0
77 -201 0
-201 -202 678 0
-73 -201 678 0
202 312 715 0
-202 -312 0
-202 -715 0
203 -204 210 0
-203 204 0
-203 -210 0
-64 204 205 -208 0
64 -204 0
-204 -205 0
-204 208 0
-3 205 207 533 0
-3 205 -206 207 0
3 -205 0
-205 -207 0
-205 206 -533 0
-4 206 0
206 -542 548 0
206 542 549 0
4 -206 -542 -548 0
4 -206 542 -549 0
4 207 -542 548 0
4 207 542 549 0
-4 -207 0
-207 542 -549 0
-207 -542 -548 0
95 208 209 0
95 107 208 0
95 208 497 0
-95 -208 0
-107 -208 -209 -497 0
-106 209 -504 0
-209 504 0
106 -209 0
200 210 211 0
200 201 210 0
201 210 -211 301 0
-200 -210 211 0
-201 -210 -211 0
-200 -210 -301 0
211 -212 476 477 0
-211 212 0
-211 -477 0
-211 -476 0
212 478 479 480 0
-212 -478 0
-212 -480 0
-212 -479 0
213 -217 722 0
55 213 -214 -217 0
-213 217 0
-213 214 -722 0
-55 -213 -722 0
214 841 -1050 0
214 -215 -841 0
-214 215 -841 0
-214 841 1050 0
-29 215 -1012 0
-29 43 215 216 0
29 -215 0
-215 -216 1012 0
-43 -215 1012 0
216 733 1049 0
-216 -733 0
-216 -1049 0
217 -218 221 0
-217 218 0
-217 -221 0
11 218 -220 -983 0
218 -219 -220 -983 0
-218 220 0
-218 983 0
-11 -218 219 0
10 219 -954 0
-219 954 0
-10 -219 0
49 181 220 0
49 61 220 0
-49 -220 0
-61 -181 -220 0
214 221 222 0
214 215 221 0
215 221 -222 722 0
-214 -221 222 0
-215 -221 -222 0
-214 -221 -722 0
222 -223 897 898 0
-222 223 0
-222 -898 0
-222 -897 0
223 899 900 901 0
-223 -899 0
-223 -901 0
-223 -900 0
224 225 227 230 -232 0
224 -225 -227 230 -232 0
-224 -230 0
-224 225 -227 0
-224 232 0
-224 -225 227 0
-218 225 -226 722 0
55 -218 225 -226 0
-225 226 0
218 -225 0
-55 -225 -722 0
-29 226 -1012 1014 0
-226 1012 0
-226 -1014 0
29 -226 0
-77 -204 227 228 -229 0
-227 229 0
77 -227 0
204 -227 0
-227 -228 0
-100 228 -301 0
-228 301 0
100 -228 0
229 -678 680 0
-229 678 0
-229 -680 0
-14 -18 -20 230 231 0
20 -230 0
-230 -231 0
14 -230 0
18 -230 0
15 -17 231 0
-15 -231 0
17 -231 0
12 232 -233 0
10 232 -233 0
13 232 -233 0
-232 233 0
-10 -12 -13 -232 0
30 37 233 -234 0
-36 37 233 -234 0
-233 234 0
-37 -233 0
-30 36 -233 0
43 -220 234 235 -236 0
220 -234 0
-234 -235 0
-43 -234 0
-234 236 0
-55 235 -722 0
-235 722 0
55 -235 0
236 -725 -726 0
236 -724 727 0
236 -724 -726 0
236 -725 727 0
-236 726 -727 0
-236 724 725 0
237 -238 -246 0
237 238 246 0
-237 238 -246 0
-237 -238 246 0
238 -242 722 0
55 238 239 -242 0
-238 242 0
-238 -239 -722 0
-55 -238 -722 0
239 240 -841 0
-226 239 841 1020 0
-239 841 -1020 0
-239 -240 -841 0
226 -239 841 0
-29 240 -241 0
29 -240 0
-240 241 0
241 -1012 -1014 0
43 241 1012 0
241 -1012 -1018 0
-43 -241 1012 0
-241 -1012 1014 1018 0
-218 242 -243 244 0
-218 239 242 244 0
218 -242 0
-242 -244 0
-239 -242 243 0
243 897 898 0
-243 -897 0
-243 -898 0
240 244 -245 0
223 -239 244 0
223 244 -245 0
-239 240 244 0
239 -244 245 0
-223 -240 -244 0
-222 245 722 0
-245 -722 0
222 -245 0
246 -251 301 0
100 246 247 -251 0
-246 251 0
-246 -247 -301 0
-100 -246 -301 0
247 248 -420 0
-77 247 -250 420 0
-247 -248 -420 0
77 -247 420 0
-247 250 420 0
-77 248 -249 0
77 -248 0
-248 249 0
249 -678 -680 0
73 249 678 0
249 -678 -684 0
-73 -249 678 0
-249 -678 680 684 0
250 -678 680 686 0
-250 678 0
-250 -686 0
-250 -680 0
-204 251 -252 253 0
-204 247 251 253 0
204 -251 0
-251 -253 0
-247 -251 252 0
252 476 477 0
-252 -476 0
-252 -477 0
248 253 -254 0
212 -247 253 0
212 253 -254 0
-247 248 253 0
247 -253 254 0
-212 -248 -253 0
-211 254 301 0
-254 -301 0
211 -254 0
255 256 267 -279 -288 0
255 -256 -267 -279 -288 0
255 256 267 279 288 0
255 -256 -267 279 288 0
-255 256 -267 0
-255 -256 267 0
-255 279 -288 0
-255 -279 288 0
256 -257 -265 0
256 260 -263 -265 0
-256 265 0
-256 257 -260 0
-256 257 263 0
-68 257 259 0
257 -258 259 0
-257 -259 0
68 -257 258 0
-66 258 504 -708 0
66 -258 0
-258 708 0
-258 -504 0
68 259 497 0
259 497 707 0
194 259 497 0
-259 -497 0
-68 -194 -259 -707 0
260 -262 301 -476 0
260 261 301 476 0
-260 -301 0
-260 262 -476 0
-260 -261 476 0
-72 261 -305 0
-261 305 0
72 -261 0
-94 262 705 0
94 261 262 0
-94 -262 -705 0
94 -261 -262 0
95 263 264 0
95 -99 262 263 0
-95 -263 0
99 -263 -264 0
-262 -263 -264 0
101 264 -301 0
264 -301 706 0
-264 301 0
-101 -264 -706 0
-63 265 497 0
-63 -258 265 0
-63 265 -266 0
63 -265 0
258 -265 266 -497 0
193 266 -707 0
68 193 266 0
-193 -266 0
-68 -266 707 0
267 -270 -276 0
267 268 -276 -918 0
-267 276 0
-267 -268 270 0
-267 270 918 0
24 268 269 0
-24 -268 0
-268 -269 0
-22 269 925 -1042 0
22 -269 0
-269 1042 0
-269 -925 0
49 270 271 275 0
49 270 271 -274 0
-49 -270 0
-270 -271 0
-270 274 -275 0
271 -273 722 -897 0
271 272 722 897 0
-271 -722 0
-271 273 -897 0
-271 -272 897 0
-28 272 -726 0
-272 726 0
28 -272 0
-48 273 1039 0
48 272 273 0
-48 -273 -1039 0
48 -272 -273 0
-53 273 274 0
53 -274 0
-273 -274 0
54 275 -722 0
275 -722 1040 0
-275 722 0
-54 -275 -1040 0
276 -278 918 0
-269 276 -278 0
276 -277 -278 0
-276 278 0
269 -276 277 -918 0
179 277 -1041 0
24 179 277 0
-179 -277 0
-24 -277 1041 0
8 278 -983 0
-278 983 0
-8 -278 0
-278 279 -280 0
-278 279 -287 0
-278 279 -286 0
278 -279 0
-279 280 286 287 0
280 283 -284 0
-53 280 281 -284 0
-280 284 0
-280 -281 -283 0
53 -280 -283 0
-48 281 1044 0
48 281 282 0
-48 -281 -1044 0
48 -281 -282 0
-28 282 -1043 0
-282 1043 0
28 -282 0
54 283 -722 0
283 -722 1045 0
-283 722 0
-54 -283 -1045 0
-178 284 285 0
178 -284 0
-284 -285 0
-281 285 722 -897 0
282 285 722 897 0
-285 -722 0
281 -285 -897 0
-282 -285 897 0
-22 -57 286 -1047 0
-286 1047 0
22 -286 0
57 -286 0
-24 -184 287 -1046 0
-287 1046 0
24 -287 0
184 -287 0
-63 288 -289 0
-63 288 -296 0
-63 288 -295 0
63 -288 0
-288 289 295 296 0
289 292 -293 0
-99 289 290 -293 0
-289 293 0
-289 -290 -292 0
99 -289 -292 0
-94 290 710 0
94 290 291 0
-94 -290 -710 0
94 -290 -291 0
-72 291 -709 0
-291 709 0
72 -291 0
101 292 -301 0
292 -301 711 0
-292 301 0
-101 -292 -711 0
-192 293 294 0
192 -293 0
-293 -294 0
-290 294 301 -476 0
291 294 301 476 0
-294 -301 0
290 -294 -476 0
-291 -294 476 0
-66 -103 295 -713 0
-295 713 0
66 -295 0
103 -295 0
-68 -197 296 -712 0
-296 712 0
68 -296 0
197 -296 0
73 -208 297 298 -299 0
208 -297 0
-297 -298 0
-73 -297 0
-297 299 0
85 89 91 298 0
-85 -298 0
-91 -298 0
-89 -298 0
-64 78 228 299 -300 0
-299 300 0
-228 -299 0
64 -299 0
-78 -299 0
300 -304 -305 0
300 -303 306 0
300 -303 -305 0
300 -304 306 0
-300 305 -306 0
-300 303 304 0
1 2 0
-1 -2 0
1056 0

